(set-logic QF_SLIA)
(set-option :produce-models true)
(declare-const X String)
; \x5BStaticHost\x3AFROM\x3Acs\x2Eshopperreports\x2Ecommedia\x2Etop-banners\x2Ecom\x2Fbar_pl\x2Fb\.fcgi
(assert (str.in_re X (str.to_re "[StaticHost:FROM:cs.shopperreports.commedia.top-banners.com/bar_pl/b.fcgi\u{0a}")))
; Host\x3A.*Hello\x2E.*Referer\x3AToolbarCurrent\x3BCIA
(assert (not (str.in_re X (re.++ (str.to_re "Host:") (re.* re.allchar) (str.to_re "Hello.") (re.* re.allchar) (str.to_re "Referer:ToolbarCurrent;CIA\u{0a}")))))
; www\x2Efreescratchandwin\x2Ecom\d+Server.*www\x2Ecameup\x2Ecom
(assert (not (str.in_re X (re.++ (str.to_re "www.freescratchandwin.com") (re.+ (re.range "0" "9")) (str.to_re "Server") (re.* re.allchar) (str.to_re "www.cameup.com\u{13}\u{0a}")))))
; ^[a-zA-Z]+$
(assert (str.in_re X (re.++ (re.+ (re.union (re.range "a" "z") (re.range "A" "Z"))) (str.to_re "\u{0a}"))))
; ^[0-9]{10}$|^\(0[1-9]{1}\)[0-9]{8}$|^[0-9]{8}$|^[0-9]{4}[ ][0-9]{3}[ ][0-9]{3}$|^\(0[1-9]{1}\)[ ][0-9]{4}[ ][0-9]{4}$|^[0-9]{4}[ ][0-9]{4}$
(assert (not (str.in_re X (re.union ((_ re.loop 10 10) (re.range "0" "9")) (re.++ (str.to_re "(0") ((_ re.loop 1 1) (re.range "1" "9")) (str.to_re ")") ((_ re.loop 8 8) (re.range "0" "9"))) ((_ re.loop 8 8) (re.range "0" "9")) (re.++ ((_ re.loop 4 4) (re.range "0" "9")) (str.to_re " ") ((_ re.loop 3 3) (re.range "0" "9")) (str.to_re " ") ((_ re.loop 3 3) (re.range "0" "9"))) (re.++ (str.to_re "(0") ((_ re.loop 1 1) (re.range "1" "9")) (str.to_re ") ") ((_ re.loop 4 4) (re.range "0" "9")) (str.to_re " ") ((_ re.loop 4 4) (re.range "0" "9"))) (re.++ ((_ re.loop 4 4) (re.range "0" "9")) (str.to_re " ") ((_ re.loop 4 4) (re.range "0" "9")) (str.to_re "\u{0a}"))))))
(check-sat)
